outputs/case_288.model.txt
violate_law_or_order = True
penalty_amount = 3000000
exempted_by_other_penalty = True
internal_control_established = False
audit_unit_established = False
internal_control_and_audit_established = False
penalty_amount_valid = True
violation_penalty_applicable = True
penalty = False